p cnf 21 9
21 11 0
-17 12 20 2 -5 -19 -10 -3 -8 1 -18 -11 14 -16 -21 15 -7 -9 -13 0
-12 15 9 0
-18 16 11 7 0
13 -7 -3 -1 0
2 -7 0
-3 12 -18 21 -6 11 -14 9 20 -13 -5 -10 15 -2 -1 0
13 14 10 1 21 -12 0
3 -5 15 0
